; benchmark generated from python API
(set-info :status unknown)
(declare-fun cell_1_3 () Int)
(declare-fun cell_1_6 () Int)
(declare-fun cell_2_6 () Int)
(declare-fun cell_2_8 () Int)
(declare-fun cell_3_3 () Int)
(declare-fun cell_3_9 () Int)
(declare-fun cell_4_4 () Int)
(declare-fun cell_4_5 () Int)
(declare-fun cell_5_1 () Int)
(declare-fun cell_5_8 () Int)
(declare-fun cell_6_1 () Int)
(declare-fun cell_6_9 () Int)
(declare-fun cell_7_4 () Int)
(declare-fun cell_8_2 () Int)
(declare-fun cell_9_7 () Int)
(declare-fun cell_1_1 () Int)
(declare-fun cell_2_1 () Int)
(declare-fun cell_3_1 () Int)
(declare-fun cell_4_1 () Int)
(declare-fun cell_7_1 () Int)
(declare-fun cell_8_1 () Int)
(declare-fun cell_9_1 () Int)
(declare-fun cell_1_2 () Int)
(declare-fun cell_2_2 () Int)
(declare-fun cell_3_2 () Int)
(declare-fun cell_4_2 () Int)
(declare-fun cell_5_2 () Int)
(declare-fun cell_6_2 () Int)
(declare-fun cell_7_2 () Int)
(declare-fun cell_9_2 () Int)
(declare-fun cell_2_3 () Int)
(declare-fun cell_4_3 () Int)
(declare-fun cell_5_3 () Int)
(declare-fun cell_6_3 () Int)
(declare-fun cell_7_3 () Int)
(declare-fun cell_8_3 () Int)
(declare-fun cell_9_3 () Int)
(declare-fun cell_1_4 () Int)
(declare-fun cell_2_4 () Int)
(declare-fun cell_3_4 () Int)
(declare-fun cell_5_4 () Int)
(declare-fun cell_6_4 () Int)
(declare-fun cell_8_4 () Int)
(declare-fun cell_9_4 () Int)
(declare-fun cell_1_5 () Int)
(declare-fun cell_2_5 () Int)
(declare-fun cell_3_5 () Int)
(declare-fun cell_5_5 () Int)
(declare-fun cell_6_5 () Int)
(declare-fun cell_7_5 () Int)
(declare-fun cell_8_5 () Int)
(declare-fun cell_9_5 () Int)
(declare-fun cell_3_6 () Int)
(declare-fun cell_4_6 () Int)
(declare-fun cell_5_6 () Int)
(declare-fun cell_6_6 () Int)
(declare-fun cell_7_6 () Int)
(declare-fun cell_8_6 () Int)
(declare-fun cell_9_6 () Int)
(declare-fun cell_1_7 () Int)
(declare-fun cell_2_7 () Int)
(declare-fun cell_3_7 () Int)
(declare-fun cell_4_7 () Int)
(declare-fun cell_5_7 () Int)
(declare-fun cell_6_7 () Int)
(declare-fun cell_7_7 () Int)
(declare-fun cell_8_7 () Int)
(declare-fun cell_1_8 () Int)
(declare-fun cell_3_8 () Int)
(declare-fun cell_4_8 () Int)
(declare-fun cell_6_8 () Int)
(declare-fun cell_7_8 () Int)
(declare-fun cell_8_8 () Int)
(declare-fun cell_9_8 () Int)
(declare-fun cell_1_9 () Int)
(declare-fun cell_2_9 () Int)
(declare-fun cell_4_9 () Int)
(declare-fun cell_5_9 () Int)
(declare-fun cell_7_9 () Int)
(declare-fun cell_8_9 () Int)
(declare-fun cell_9_9 () Int)
(assert
 (= cell_1_3 1))
(assert
 (= cell_1_6 2))
(assert
 (= cell_2_6 1))
(assert
 (= cell_2_8 2))
(assert
 (= cell_3_3 2))
(assert
 (= cell_3_9 1))
(assert
 (= cell_4_4 2))
(assert
 (= cell_4_5 1))
(assert
 (= cell_5_1 2))
(assert
 (= cell_5_8 1))
(assert
 (= cell_6_1 1))
(assert
 (= cell_6_9 2))
(assert
 (= cell_7_4 1))
(assert
 (= cell_8_2 1))
(assert
 (= cell_9_7 1))
(assert
 (let (($x3691 (= cell_1_1 9)))
 (let (($x2858 (= cell_1_1 8)))
 (let (($x433 (= cell_1_1 7)))
 (let (($x1110 (= cell_1_1 6)))
 (let (($x1486 (= cell_1_1 5)))
 (let (($x1295 (= cell_1_1 4)))
 (let (($x223 (= cell_1_1 3)))
 (let (($x2370 (= cell_1_1 2)))
 (let (($x67 (= cell_1_1 1)))
 (or $x67 $x2370 $x223 $x1295 $x1486 $x1110 $x433 $x2858 $x3691)))))))))))
(assert
 (let (($x29 (= cell_2_1 9)))
 (let (($x2835 (= cell_2_1 8)))
 (let (($x843 (= cell_2_1 7)))
 (let (($x2011 (= cell_2_1 6)))
 (let (($x2149 (= cell_2_1 5)))
 (let (($x385 (= cell_2_1 4)))
 (let (($x2168 (= cell_2_1 3)))
 (let (($x1615 (= cell_2_1 2)))
 (let (($x2372 (= cell_2_1 1)))
 (or $x2372 $x1615 $x2168 $x385 $x2149 $x2011 $x843 $x2835 $x29)))))))))))
(assert
 (let (($x3631 (= cell_3_1 9)))
 (let (($x376 (= cell_3_1 8)))
 (let (($x2904 (= cell_3_1 7)))
 (let (($x1264 (= cell_3_1 6)))
 (let (($x929 (= cell_3_1 5)))
 (let (($x1974 (= cell_3_1 4)))
 (let (($x2239 (= cell_3_1 3)))
 (let (($x925 (= cell_3_1 2)))
 (let (($x2898 (= cell_3_1 1)))
 (or $x2898 $x925 $x2239 $x1974 $x929 $x1264 $x2904 $x376 $x3631)))))))))))
(assert
 (let (($x1676 (= cell_4_1 9)))
 (let (($x2053 (= cell_4_1 8)))
 (let (($x2094 (= cell_4_1 7)))
 (let (($x1529 (= cell_4_1 6)))
 (let (($x476 (= cell_4_1 5)))
 (let (($x1037 (= cell_4_1 4)))
 (let (($x3059 (= cell_4_1 3)))
 (let (($x2189 (= cell_4_1 2)))
 (let (($x3391 (= cell_4_1 1)))
 (or $x3391 $x2189 $x3059 $x1037 $x476 $x1529 $x2094 $x2053 $x1676)))))))))))
(assert
 (let (($x2821 (= cell_5_1 2)))
 (or (= cell_5_1 1) $x2821 (= cell_5_1 3) (= cell_5_1 4) (= cell_5_1 5) (= cell_5_1 6) (= cell_5_1 7) (= cell_5_1 8) (= cell_5_1 9))))
(assert
 (let (($x2073 (= cell_6_1 1)))
 (or $x2073 (= cell_6_1 2) (= cell_6_1 3) (= cell_6_1 4) (= cell_6_1 5) (= cell_6_1 6) (= cell_6_1 7) (= cell_6_1 8) (= cell_6_1 9))))
(assert
 (let (($x1222 (= cell_7_1 9)))
 (let (($x3200 (= cell_7_1 8)))
 (let (($x2008 (= cell_7_1 7)))
 (let (($x1690 (= cell_7_1 6)))
 (let (($x1087 (= cell_7_1 5)))
 (let (($x2895 (= cell_7_1 4)))
 (let (($x181 (= cell_7_1 3)))
 (let (($x3346 (= cell_7_1 2)))
 (let (($x2113 (= cell_7_1 1)))
 (or $x2113 $x3346 $x181 $x2895 $x1087 $x1690 $x2008 $x3200 $x1222)))))))))))
(assert
 (let (($x1853 (= cell_8_1 9)))
 (let (($x2421 (= cell_8_1 8)))
 (let (($x2248 (= cell_8_1 7)))
 (let (($x2159 (= cell_8_1 6)))
 (let (($x462 (= cell_8_1 5)))
 (let (($x2579 (= cell_8_1 4)))
 (let (($x2373 (= cell_8_1 3)))
 (let (($x2545 (= cell_8_1 2)))
 (let (($x2840 (= cell_8_1 1)))
 (or $x2840 $x2545 $x2373 $x2579 $x462 $x2159 $x2248 $x2421 $x1853)))))))))))
(assert
 (let (($x1146 (= cell_9_1 9)))
 (let (($x1991 (= cell_9_1 8)))
 (let (($x1289 (= cell_9_1 7)))
 (let (($x556 (= cell_9_1 6)))
 (let (($x2136 (= cell_9_1 5)))
 (let (($x3406 (= cell_9_1 4)))
 (let (($x2535 (= cell_9_1 3)))
 (let (($x3490 (= cell_9_1 2)))
 (let (($x1829 (= cell_9_1 1)))
 (or $x1829 $x3490 $x2535 $x3406 $x2136 $x556 $x1289 $x1991 $x1146)))))))))))
(assert
 (let (($x909 (= cell_1_2 9)))
 (let (($x3619 (= cell_1_2 8)))
 (let (($x2240 (= cell_1_2 7)))
 (let (($x2288 (= cell_1_2 6)))
 (let (($x1247 (= cell_1_2 5)))
 (let (($x315 (= cell_1_2 4)))
 (let (($x1836 (= cell_1_2 3)))
 (let (($x2900 (= cell_1_2 2)))
 (let (($x2527 (= cell_1_2 1)))
 (or $x2527 $x2900 $x1836 $x315 $x1247 $x2288 $x2240 $x3619 $x909)))))))))))
(assert
 (let (($x2503 (= cell_2_2 9)))
 (let (($x2932 (= cell_2_2 8)))
 (let (($x3038 (= cell_2_2 7)))
 (let (($x2536 (= cell_2_2 6)))
 (let (($x2389 (= cell_2_2 5)))
 (let (($x274 (= cell_2_2 4)))
 (let (($x144 (= cell_2_2 3)))
 (let (($x3041 (= cell_2_2 2)))
 (let (($x2683 (= cell_2_2 1)))
 (or $x2683 $x3041 $x144 $x274 $x2389 $x2536 $x3038 $x2932 $x2503)))))))))))
(assert
 (let (($x1804 (= cell_3_2 9)))
 (let (($x1976 (= cell_3_2 8)))
 (let (($x799 (= cell_3_2 7)))
 (let (($x935 (= cell_3_2 6)))
 (let (($x3368 (= cell_3_2 5)))
 (let (($x1981 (= cell_3_2 4)))
 (let (($x547 (= cell_3_2 3)))
 (let (($x3766 (= cell_3_2 2)))
 (let (($x1160 (= cell_3_2 1)))
 (or $x1160 $x3766 $x547 $x1981 $x3368 $x935 $x799 $x1976 $x1804)))))))))))
(assert
 (let (($x2525 (= cell_4_2 9)))
 (let (($x1848 (= cell_4_2 8)))
 (let (($x1767 (= cell_4_2 7)))
 (let (($x1495 (= cell_4_2 6)))
 (let (($x1203 (= cell_4_2 5)))
 (let (($x3493 (= cell_4_2 4)))
 (let (($x1815 (= cell_4_2 3)))
 (let (($x1361 (= cell_4_2 2)))
 (let (($x1663 (= cell_4_2 1)))
 (or $x1663 $x1361 $x1815 $x3493 $x1203 $x1495 $x1767 $x1848 $x2525)))))))))))
(assert
 (let (($x1796 (= cell_5_2 9)))
 (let (($x2779 (= cell_5_2 8)))
 (let (($x902 (= cell_5_2 7)))
 (let (($x742 (= cell_5_2 6)))
 (let (($x1154 (= cell_5_2 5)))
 (let (($x2629 (= cell_5_2 4)))
 (let (($x1143 (= cell_5_2 3)))
 (let (($x307 (= cell_5_2 2)))
 (let (($x793 (= cell_5_2 1)))
 (or $x793 $x307 $x1143 $x2629 $x1154 $x742 $x902 $x2779 $x1796)))))))))))
(assert
 (let (($x869 (= cell_6_2 9)))
 (let (($x57 (= cell_6_2 8)))
 (let (($x451 (= cell_6_2 7)))
 (let (($x2571 (= cell_6_2 6)))
 (let (($x1588 (= cell_6_2 5)))
 (let (($x3163 (= cell_6_2 4)))
 (let (($x1081 (= cell_6_2 3)))
 (let (($x4067 (= cell_6_2 2)))
 (let (($x2351 (= cell_6_2 1)))
 (or $x2351 $x4067 $x1081 $x3163 $x1588 $x2571 $x451 $x57 $x869)))))))))))
(assert
 (let (($x219 (= cell_7_2 9)))
 (let (($x2266 (= cell_7_2 8)))
 (let (($x1015 (= cell_7_2 7)))
 (let (($x1441 (= cell_7_2 6)))
 (let (($x832 (= cell_7_2 5)))
 (let (($x3114 (= cell_7_2 4)))
 (let (($x2328 (= cell_7_2 3)))
 (let (($x1225 (= cell_7_2 2)))
 (let (($x1088 (= cell_7_2 1)))
 (or $x1088 $x1225 $x2328 $x3114 $x832 $x1441 $x1015 $x2266 $x219)))))))))))
(assert
 (let (($x625 (= cell_8_2 1)))
 (or $x625 (= cell_8_2 2) (= cell_8_2 3) (= cell_8_2 4) (= cell_8_2 5) (= cell_8_2 6) (= cell_8_2 7) (= cell_8_2 8) (= cell_8_2 9))))
(assert
 (let (($x1399 (= cell_9_2 9)))
 (let (($x558 (= cell_9_2 8)))
 (let (($x2097 (= cell_9_2 7)))
 (let (($x26 (= cell_9_2 6)))
 (let (($x3598 (= cell_9_2 5)))
 (let (($x3661 (= cell_9_2 4)))
 (let (($x1250 (= cell_9_2 3)))
 (let (($x2234 (= cell_9_2 2)))
 (let (($x2809 (= cell_9_2 1)))
 (or $x2809 $x2234 $x1250 $x3661 $x3598 $x26 $x2097 $x558 $x1399)))))))))))
(assert
 (let (($x1309 (= cell_1_3 1)))
 (or $x1309 (= cell_1_3 2) (= cell_1_3 3) (= cell_1_3 4) (= cell_1_3 5) (= cell_1_3 6) (= cell_1_3 7) (= cell_1_3 8) (= cell_1_3 9))))
(assert
 (let (($x2687 (= cell_2_3 9)))
 (let (($x1825 (= cell_2_3 8)))
 (let (($x437 (= cell_2_3 7)))
 (let (($x1340 (= cell_2_3 6)))
 (let (($x845 (= cell_2_3 5)))
 (let (($x2704 (= cell_2_3 4)))
 (let (($x2056 (= cell_2_3 3)))
 (let (($x1066 (= cell_2_3 2)))
 (let (($x546 (= cell_2_3 1)))
 (or $x546 $x1066 $x2056 $x2704 $x845 $x1340 $x437 $x1825 $x2687)))))))))))
(assert
 (let (($x992 (= cell_3_3 2)))
 (or (= cell_3_3 1) $x992 (= cell_3_3 3) (= cell_3_3 4) (= cell_3_3 5) (= cell_3_3 6) (= cell_3_3 7) (= cell_3_3 8) (= cell_3_3 9))))
(assert
 (let (($x2470 (= cell_4_3 9)))
 (let (($x522 (= cell_4_3 8)))
 (let (($x2319 (= cell_4_3 7)))
 (let (($x1737 (= cell_4_3 6)))
 (let (($x422 (= cell_4_3 5)))
 (let (($x652 (= cell_4_3 4)))
 (let (($x1762 (= cell_4_3 3)))
 (let (($x359 (= cell_4_3 2)))
 (let (($x823 (= cell_4_3 1)))
 (or $x823 $x359 $x1762 $x652 $x422 $x1737 $x2319 $x522 $x2470)))))))))))
(assert
 (let (($x1765 (= cell_5_3 9)))
 (let (($x1313 (= cell_5_3 8)))
 (let (($x267 (= cell_5_3 7)))
 (let (($x2857 (= cell_5_3 6)))
 (let (($x698 (= cell_5_3 5)))
 (let (($x2902 (= cell_5_3 4)))
 (let (($x1760 (= cell_5_3 3)))
 (let (($x269 (= cell_5_3 2)))
 (let (($x466 (= cell_5_3 1)))
 (or $x466 $x269 $x1760 $x2902 $x698 $x2857 $x267 $x1313 $x1765)))))))))))
(assert
 (let (($x3076 (= cell_6_3 9)))
 (let (($x1655 (= cell_6_3 8)))
 (let (($x2337 (= cell_6_3 7)))
 (let (($x894 (= cell_6_3 6)))
 (let (($x2450 (= cell_6_3 5)))
 (let (($x829 (= cell_6_3 4)))
 (let (($x489 (= cell_6_3 3)))
 (let (($x1483 (= cell_6_3 2)))
 (let (($x1900 (= cell_6_3 1)))
 (or $x1900 $x1483 $x489 $x829 $x2450 $x894 $x2337 $x1655 $x3076)))))))))))
(assert
 (let (($x362 (= cell_7_3 9)))
 (let (($x1347 (= cell_7_3 8)))
 (let (($x699 (= cell_7_3 7)))
 (let (($x394 (= cell_7_3 6)))
 (let (($x2833 (= cell_7_3 5)))
 (let (($x2886 (= cell_7_3 4)))
 (let (($x3711 (= cell_7_3 3)))
 (let (($x2614 (= cell_7_3 2)))
 (let (($x357 (= cell_7_3 1)))
 (or $x357 $x2614 $x3711 $x2886 $x2833 $x394 $x699 $x1347 $x362)))))))))))
(assert
 (let (($x1153 (= cell_8_3 2)))
 (let (($x2099 (= cell_8_3 1)))
 (or $x2099 $x1153 (= cell_8_3 3) (= cell_8_3 4) (= cell_8_3 5) (= cell_8_3 6) (= cell_8_3 7) (= cell_8_3 8) (= cell_8_3 9)))))
(assert
 (let (($x3789 (= cell_9_3 9)))
 (let (($x1032 (= cell_9_3 8)))
 (let (($x1598 (= cell_9_3 7)))
 (let (($x1068 (= cell_9_3 6)))
 (let (($x751 (= cell_9_3 5)))
 (let (($x2596 (= cell_9_3 4)))
 (let (($x1605 (= cell_9_3 3)))
 (let (($x1609 (= cell_9_3 2)))
 (let (($x744 (= cell_9_3 1)))
 (or $x744 $x1609 $x1605 $x2596 $x751 $x1068 $x1598 $x1032 $x3789)))))))))))
(assert
 (let (($x1515 (= cell_1_4 9)))
 (let (($x2135 (= cell_1_4 8)))
 (let (($x1014 (= cell_1_4 7)))
 (let (($x1752 (= cell_1_4 6)))
 (let (($x1517 (= cell_1_4 5)))
 (let (($x3680 (= cell_1_4 4)))
 (let (($x3153 (= cell_1_4 3)))
 (let (($x2887 (= cell_1_4 2)))
 (let (($x2063 (= cell_1_4 1)))
 (or $x2063 $x2887 $x3153 $x3680 $x1517 $x1752 $x1014 $x2135 $x1515)))))))))))
(assert
 (let (($x3184 (= cell_2_4 9)))
 (let (($x2664 (= cell_2_4 8)))
 (let (($x3750 (= cell_2_4 7)))
 (let (($x877 (= cell_2_4 6)))
 (let (($x2627 (= cell_2_4 5)))
 (let (($x553 (= cell_2_4 4)))
 (let (($x709 (= cell_2_4 3)))
 (let (($x2517 (= cell_2_4 2)))
 (let (($x2112 (= cell_2_4 1)))
 (or $x2112 $x2517 $x709 $x553 $x2627 $x877 $x3750 $x2664 $x3184)))))))))))
(assert
 (let (($x3411 (= cell_3_4 9)))
 (let (($x2607 (= cell_3_4 8)))
 (let (($x178 (= cell_3_4 7)))
 (let (($x467 (= cell_3_4 6)))
 (let (($x2350 (= cell_3_4 5)))
 (let (($x1126 (= cell_3_4 4)))
 (let (($x1059 (= cell_3_4 3)))
 (let (($x2282 (= cell_3_4 2)))
 (let (($x3492 (= cell_3_4 1)))
 (or $x3492 $x2282 $x1059 $x1126 $x2350 $x467 $x178 $x2607 $x3411)))))))))))
(assert
 (let (($x1920 (= cell_4_4 2)))
 (or (= cell_4_4 1) $x1920 (= cell_4_4 3) (= cell_4_4 4) (= cell_4_4 5) (= cell_4_4 6) (= cell_4_4 7) (= cell_4_4 8) (= cell_4_4 9))))
(assert
 (let (($x1094 (= cell_5_4 9)))
 (let (($x2454 (= cell_5_4 8)))
 (let (($x182 (= cell_5_4 7)))
 (let (($x2605 (= cell_5_4 6)))
 (let (($x1876 (= cell_5_4 5)))
 (let (($x354 (= cell_5_4 4)))
 (let (($x2054 (= cell_5_4 3)))
 (let (($x3642 (= cell_5_4 2)))
 (let (($x1904 (= cell_5_4 1)))
 (or $x1904 $x3642 $x2054 $x354 $x1876 $x2605 $x182 $x2454 $x1094)))))))))))
(assert
 (let (($x166 (= cell_6_4 9)))
 (let (($x1044 (= cell_6_4 8)))
 (let (($x113 (= cell_6_4 7)))
 (let (($x1978 (= cell_6_4 6)))
 (let (($x3845 (= cell_6_4 5)))
 (let (($x2489 (= cell_6_4 4)))
 (let (($x1463 (= cell_6_4 3)))
 (let (($x2415 (= cell_6_4 2)))
 (let (($x1303 (= cell_6_4 1)))
 (or $x1303 $x2415 $x1463 $x2489 $x3845 $x1978 $x113 $x1044 $x166)))))))))))
(assert
 (let (($x899 (= cell_7_4 1)))
 (or $x899 (= cell_7_4 2) (= cell_7_4 3) (= cell_7_4 4) (= cell_7_4 5) (= cell_7_4 6) (= cell_7_4 7) (= cell_7_4 8) (= cell_7_4 9))))
(assert
 (let (($x2316 (= cell_8_4 2)))
 (let (($x1940 (= cell_8_4 1)))
 (or $x1940 $x2316 (= cell_8_4 3) (= cell_8_4 4) (= cell_8_4 5) (= cell_8_4 6) (= cell_8_4 7) (= cell_8_4 8) (= cell_8_4 9)))))
(assert
 (let (($x1272 (= cell_9_4 9)))
 (let (($x318 (= cell_9_4 8)))
 (let (($x2916 (= cell_9_4 7)))
 (let (($x4061 (= cell_9_4 6)))
 (let (($x632 (= cell_9_4 5)))
 (let (($x716 (= cell_9_4 4)))
 (let (($x2530 (= cell_9_4 3)))
 (let (($x3604 (= cell_9_4 2)))
 (let (($x1466 (= cell_9_4 1)))
 (or $x1466 $x3604 $x2530 $x716 $x632 $x4061 $x2916 $x318 $x1272)))))))))))
(assert
 (let (($x150 (= cell_1_5 9)))
 (let (($x901 (= cell_1_5 8)))
 (let (($x255 (= cell_1_5 7)))
 (let (($x1524 (= cell_1_5 6)))
 (let (($x958 (= cell_1_5 5)))
 (let (($x3628 (= cell_1_5 4)))
 (let (($x251 (= cell_1_5 3)))
 (let (($x1426 (= cell_1_5 2)))
 (let (($x1849 (= cell_1_5 1)))
 (or $x1849 $x1426 $x251 $x3628 $x958 $x1524 $x255 $x901 $x150)))))))))))
(assert
 (let (($x2323 (= cell_2_5 9)))
 (let (($x193 (= cell_2_5 8)))
 (let (($x960 (= cell_2_5 7)))
 (let (($x1837 (= cell_2_5 6)))
 (let (($x3510 (= cell_2_5 5)))
 (let (($x1620 (= cell_2_5 4)))
 (let (($x3355 (= cell_2_5 3)))
 (let (($x2810 (= cell_2_5 2)))
 (let (($x674 (= cell_2_5 1)))
 (or $x674 $x2810 $x3355 $x1620 $x3510 $x1837 $x960 $x193 $x2323)))))))))))
(assert
 (let (($x2364 (= cell_3_5 9)))
 (let (($x1445 (= cell_3_5 8)))
 (let (($x2668 (= cell_3_5 7)))
 (let (($x2249 (= cell_3_5 6)))
 (let (($x711 (= cell_3_5 5)))
 (let (($x2914 (= cell_3_5 4)))
 (let (($x3121 (= cell_3_5 3)))
 (let (($x1693 (= cell_3_5 2)))
 (let (($x196 (= cell_3_5 1)))
 (or $x196 $x1693 $x3121 $x2914 $x711 $x2249 $x2668 $x1445 $x2364)))))))))))
(assert
 (let (($x1525 (= cell_4_5 1)))
 (or $x1525 (= cell_4_5 2) (= cell_4_5 3) (= cell_4_5 4) (= cell_4_5 5) (= cell_4_5 6) (= cell_4_5 7) (= cell_4_5 8) (= cell_4_5 9))))
(assert
 (let (($x1691 (= cell_5_5 9)))
 (let (($x1682 (= cell_5_5 8)))
 (let (($x1292 (= cell_5_5 7)))
 (let (($x2637 (= cell_5_5 6)))
 (let (($x2375 (= cell_5_5 5)))
 (let (($x2811 (= cell_5_5 4)))
 (let (($x1659 (= cell_5_5 3)))
 (let (($x417 (= cell_5_5 2)))
 (let (($x2371 (= cell_5_5 1)))
 (or $x2371 $x417 $x1659 $x2811 $x2375 $x2637 $x1292 $x1682 $x1691)))))))))))
(assert
 (let (($x1424 (= cell_6_5 9)))
 (let (($x2251 (= cell_6_5 8)))
 (let (($x2974 (= cell_6_5 7)))
 (let (($x2752 (= cell_6_5 6)))
 (let (($x345 (= cell_6_5 5)))
 (let (($x42 (= cell_6_5 4)))
 (let (($x1036 (= cell_6_5 3)))
 (let (($x2665 (= cell_6_5 2)))
 (let (($x885 (= cell_6_5 1)))
 (or $x885 $x2665 $x1036 $x42 $x345 $x2752 $x2974 $x2251 $x1424)))))))))))
(assert
 (let (($x1629 (= cell_7_5 1)))
 (or $x1629 (= cell_7_5 2) (= cell_7_5 3) (= cell_7_5 4) (= cell_7_5 5) (= cell_7_5 6) (= cell_7_5 7) (= cell_7_5 8) (= cell_7_5 9))))
(assert
 (let (($x531 (= cell_8_5 1)))
 (or $x531 (= cell_8_5 2) (= cell_8_5 3) (= cell_8_5 4) (= cell_8_5 5) (= cell_8_5 6) (= cell_8_5 7) (= cell_8_5 8) (= cell_8_5 9))))
(assert
 (let (($x947 (= cell_9_5 9)))
 (let (($x2509 (= cell_9_5 8)))
 (let (($x3701 (= cell_9_5 7)))
 (let (($x3359 (= cell_9_5 6)))
 (let (($x2345 (= cell_9_5 5)))
 (let (($x3002 (= cell_9_5 4)))
 (let (($x486 (= cell_9_5 3)))
 (let (($x300 (= cell_9_5 2)))
 (let (($x1049 (= cell_9_5 1)))
 (or $x1049 $x300 $x486 $x3002 $x2345 $x3359 $x3701 $x2509 $x947)))))))))))
(assert
 (let (($x639 (= cell_1_6 2)))
 (or (= cell_1_6 1) $x639 (= cell_1_6 3) (= cell_1_6 4) (= cell_1_6 5) (= cell_1_6 6) (= cell_1_6 7) (= cell_1_6 8) (= cell_1_6 9))))
(assert
 (let (($x1556 (= cell_2_6 1)))
 (or $x1556 (= cell_2_6 2) (= cell_2_6 3) (= cell_2_6 4) (= cell_2_6 5) (= cell_2_6 6) (= cell_2_6 7) (= cell_2_6 8) (= cell_2_6 9))))
(assert
 (let (($x2748 (= cell_3_6 9)))
 (let (($x3557 (= cell_3_6 8)))
 (let (($x2587 (= cell_3_6 7)))
 (let (($x1111 (= cell_3_6 6)))
 (let (($x975 (= cell_3_6 5)))
 (let (($x670 (= cell_3_6 4)))
 (let (($x1045 (= cell_3_6 3)))
 (let (($x270 (= cell_3_6 2)))
 (let (($x311 (= cell_3_6 1)))
 (or $x311 $x270 $x1045 $x670 $x975 $x1111 $x2587 $x3557 $x2748)))))))))))
(assert
 (let (($x739 (= cell_4_6 2)))
 (let (($x2416 (= cell_4_6 1)))
 (or $x2416 $x739 (= cell_4_6 3) (= cell_4_6 4) (= cell_4_6 5) (= cell_4_6 6) (= cell_4_6 7) (= cell_4_6 8) (= cell_4_6 9)))))
(assert
 (let (($x3313 (= cell_5_6 9)))
 (let (($x1438 (= cell_5_6 8)))
 (let (($x3340 (= cell_5_6 7)))
 (let (($x704 (= cell_5_6 6)))
 (let (($x908 (= cell_5_6 5)))
 (let (($x2943 (= cell_5_6 4)))
 (let (($x2849 (= cell_5_6 3)))
 (let (($x1587 (= cell_5_6 2)))
 (let (($x882 (= cell_5_6 1)))
 (or $x882 $x1587 $x2849 $x2943 $x908 $x704 $x3340 $x1438 $x3313)))))))))))
(assert
 (let (($x3534 (= cell_6_6 9)))
 (let (($x1293 (= cell_6_6 8)))
 (let (($x2910 (= cell_6_6 7)))
 (let (($x1378 (= cell_6_6 6)))
 (let (($x1868 (= cell_6_6 5)))
 (let (($x2860 (= cell_6_6 4)))
 (let (($x2241 (= cell_6_6 3)))
 (let (($x2396 (= cell_6_6 2)))
 (let (($x912 (= cell_6_6 1)))
 (or $x912 $x2396 $x2241 $x2860 $x1868 $x1378 $x2910 $x1293 $x3534)))))))))))
(assert
 (let (($x216 (= cell_7_6 2)))
 (let (($x1484 (= cell_7_6 1)))
 (or $x1484 $x216 (= cell_7_6 3) (= cell_7_6 4) (= cell_7_6 5) (= cell_7_6 6) (= cell_7_6 7) (= cell_7_6 8) (= cell_7_6 9)))))
(assert
 (let (($x745 (= cell_8_6 2)))
 (let (($x2356 (= cell_8_6 1)))
 (or $x2356 $x745 (= cell_8_6 3) (= cell_8_6 4) (= cell_8_6 5) (= cell_8_6 6) (= cell_8_6 7) (= cell_8_6 8) (= cell_8_6 9)))))
(assert
 (let (($x2946 (= cell_9_6 9)))
 (let (($x238 (= cell_9_6 8)))
 (let (($x1648 (= cell_9_6 7)))
 (let (($x1626 (= cell_9_6 6)))
 (let (($x1443 (= cell_9_6 5)))
 (let (($x2174 (= cell_9_6 4)))
 (let (($x1103 (= cell_9_6 3)))
 (let (($x294 (= cell_9_6 2)))
 (let (($x760 (= cell_9_6 1)))
 (or $x760 $x294 $x1103 $x2174 $x1443 $x1626 $x1648 $x238 $x2946)))))))))))
(assert
 (let (($x2588 (= cell_1_7 9)))
 (let (($x1428 (= cell_1_7 8)))
 (let (($x3836 (= cell_1_7 7)))
 (let (($x2184 (= cell_1_7 6)))
 (let (($x1893 (= cell_1_7 5)))
 (let (($x18 (= cell_1_7 4)))
 (let (($x1409 (= cell_1_7 3)))
 (let (($x3231 (= cell_1_7 2)))
 (let (($x1654 (= cell_1_7 1)))
 (or $x1654 $x3231 $x1409 $x18 $x1893 $x2184 $x3836 $x1428 $x2588)))))))))))
(assert
 (let (($x2020 (= cell_2_7 9)))
 (let (($x3488 (= cell_2_7 8)))
 (let (($x601 (= cell_2_7 7)))
 (let (($x1563 (= cell_2_7 6)))
 (let (($x1668 (= cell_2_7 5)))
 (let (($x1534 (= cell_2_7 4)))
 (let (($x736 (= cell_2_7 3)))
 (let (($x1109 (= cell_2_7 2)))
 (let (($x1395 (= cell_2_7 1)))
 (or $x1395 $x1109 $x736 $x1534 $x1668 $x1563 $x601 $x3488 $x2020)))))))))))
(assert
 (let (($x774 (= cell_3_7 9)))
 (let (($x1502 (= cell_3_7 8)))
 (let (($x818 (= cell_3_7 7)))
 (let (($x830 (= cell_3_7 6)))
 (let (($x3325 (= cell_3_7 5)))
 (let (($x1936 (= cell_3_7 4)))
 (let (($x2610 (= cell_3_7 3)))
 (let (($x1503 (= cell_3_7 2)))
 (let (($x52 (= cell_3_7 1)))
 (or $x52 $x1503 $x2610 $x1936 $x3325 $x830 $x818 $x1502 $x774)))))))))))
(assert
 (let (($x1067 (= cell_4_7 9)))
 (let (($x3722 (= cell_4_7 8)))
 (let (($x145 (= cell_4_7 7)))
 (let (($x2670 (= cell_4_7 6)))
 (let (($x1846 (= cell_4_7 5)))
 (let (($x756 (= cell_4_7 4)))
 (let (($x775 (= cell_4_7 3)))
 (let (($x1343 (= cell_4_7 2)))
 (let (($x920 (= cell_4_7 1)))
 (or $x920 $x1343 $x775 $x756 $x1846 $x2670 $x145 $x3722 $x1067)))))))))))
(assert
 (let (($x282 (= cell_5_7 9)))
 (let (($x2598 (= cell_5_7 8)))
 (let (($x1017 (= cell_5_7 7)))
 (let (($x2332 (= cell_5_7 6)))
 (let (($x864 (= cell_5_7 5)))
 (let (($x990 (= cell_5_7 4)))
 (let (($x3830 (= cell_5_7 3)))
 (let (($x1199 (= cell_5_7 2)))
 (let (($x1680 (= cell_5_7 1)))
 (or $x1680 $x1199 $x3830 $x990 $x864 $x2332 $x1017 $x2598 $x282)))))))))))
(assert
 (let (($x2828 (= cell_6_7 9)))
 (let (($x1430 (= cell_6_7 8)))
 (let (($x814 (= cell_6_7 7)))
 (let (($x3504 (= cell_6_7 6)))
 (let (($x1392 (= cell_6_7 5)))
 (let (($x2080 (= cell_6_7 4)))
 (let (($x1666 (= cell_6_7 3)))
 (let (($x400 (= cell_6_7 2)))
 (let (($x2339 (= cell_6_7 1)))
 (or $x2339 $x400 $x1666 $x2080 $x1392 $x3504 $x814 $x1430 $x2828)))))))))))
(assert
 (let (($x458 (= cell_7_7 9)))
 (let (($x1783 (= cell_7_7 8)))
 (let (($x1341 (= cell_7_7 7)))
 (let (($x2589 (= cell_7_7 6)))
 (let (($x1870 (= cell_7_7 5)))
 (let (($x22 (= cell_7_7 4)))
 (let (($x2297 (= cell_7_7 3)))
 (let (($x403 (= cell_7_7 2)))
 (let (($x3427 (= cell_7_7 1)))
 (or $x3427 $x403 $x2297 $x22 $x1870 $x2589 $x1341 $x1783 $x458)))))))))))
(assert
 (let (($x2197 (= cell_8_7 9)))
 (let (($x260 (= cell_8_7 8)))
 (let (($x21 (= cell_8_7 7)))
 (let (($x668 (= cell_8_7 6)))
 (let (($x3574 (= cell_8_7 5)))
 (let (($x585 (= cell_8_7 4)))
 (let (($x2325 (= cell_8_7 3)))
 (let (($x2735 (= cell_8_7 2)))
 (let (($x129 (= cell_8_7 1)))
 (or $x129 $x2735 $x2325 $x585 $x3574 $x668 $x21 $x260 $x2197)))))))))))
(assert
 (let (($x2537 (= cell_9_7 1)))
 (or $x2537 (= cell_9_7 2) (= cell_9_7 3) (= cell_9_7 4) (= cell_9_7 5) (= cell_9_7 6) (= cell_9_7 7) (= cell_9_7 8) (= cell_9_7 9))))
(assert
 (let (($x1508 (= cell_1_8 9)))
 (let (($x971 (= cell_1_8 8)))
 (let (($x1990 (= cell_1_8 7)))
 (let (($x939 (= cell_1_8 6)))
 (let (($x3643 (= cell_1_8 5)))
 (let (($x1530 (= cell_1_8 4)))
 (let (($x750 (= cell_1_8 3)))
 (let (($x1458 (= cell_1_8 2)))
 (let (($x450 (= cell_1_8 1)))
 (or $x450 $x1458 $x750 $x1530 $x3643 $x939 $x1990 $x971 $x1508)))))))))))
(assert
 (let (($x2394 (= cell_2_8 2)))
 (or (= cell_2_8 1) $x2394 (= cell_2_8 3) (= cell_2_8 4) (= cell_2_8 5) (= cell_2_8 6) (= cell_2_8 7) (= cell_2_8 8) (= cell_2_8 9))))
(assert
 (let (($x1061 (= cell_3_8 9)))
 (let (($x4221 (= cell_3_8 8)))
 (let (($x2908 (= cell_3_8 7)))
 (let (($x1948 (= cell_3_8 6)))
 (let (($x3333 (= cell_3_8 5)))
 (let (($x1462 (= cell_3_8 4)))
 (let (($x2257 (= cell_3_8 3)))
 (let (($x1579 (= cell_3_8 2)))
 (let (($x1235 (= cell_3_8 1)))
 (or $x1235 $x1579 $x2257 $x1462 $x3333 $x1948 $x2908 $x4221 $x1061)))))))))))
(assert
 (let (($x2662 (= cell_4_8 9)))
 (let (($x569 (= cell_4_8 8)))
 (let (($x1471 (= cell_4_8 7)))
 (let (($x2640 (= cell_4_8 6)))
 (let (($x3839 (= cell_4_8 5)))
 (let (($x3796 (= cell_4_8 4)))
 (let (($x561 (= cell_4_8 3)))
 (let (($x2929 (= cell_4_8 2)))
 (let (($x2626 (= cell_4_8 1)))
 (or $x2626 $x2929 $x561 $x3796 $x3839 $x2640 $x1471 $x569 $x2662)))))))))))
(assert
 (let (($x2315 (= cell_5_8 1)))
 (or $x2315 (= cell_5_8 2) (= cell_5_8 3) (= cell_5_8 4) (= cell_5_8 5) (= cell_5_8 6) (= cell_5_8 7) (= cell_5_8 8) (= cell_5_8 9))))
(assert
 (let (($x3570 (= cell_6_8 9)))
 (let (($x2176 (= cell_6_8 8)))
 (let (($x1194 (= cell_6_8 7)))
 (let (($x2048 (= cell_6_8 6)))
 (let (($x2850 (= cell_6_8 5)))
 (let (($x210 (= cell_6_8 4)))
 (let (($x2178 (= cell_6_8 3)))
 (let (($x3589 (= cell_6_8 2)))
 (let (($x285 (= cell_6_8 1)))
 (or $x285 $x3589 $x2178 $x210 $x2850 $x2048 $x1194 $x2176 $x3570)))))))))))
(assert
 (let (($x3228 (= cell_7_8 9)))
 (let (($x1469 (= cell_7_8 8)))
 (let (($x2299 (= cell_7_8 7)))
 (let (($x1288 (= cell_7_8 6)))
 (let (($x2619 (= cell_7_8 5)))
 (let (($x2445 (= cell_7_8 4)))
 (let (($x983 (= cell_7_8 3)))
 (let (($x2512 (= cell_7_8 2)))
 (let (($x1543 (= cell_7_8 1)))
 (or $x1543 $x2512 $x983 $x2445 $x2619 $x1288 $x2299 $x1469 $x3228)))))))))))
(assert
 (let (($x2656 (= cell_8_8 9)))
 (let (($x1602 (= cell_8_8 8)))
 (let (($x3575 (= cell_8_8 7)))
 (let (($x653 (= cell_8_8 6)))
 (let (($x2271 (= cell_8_8 5)))
 (let (($x3215 (= cell_8_8 4)))
 (let (($x2237 (= cell_8_8 3)))
 (let (($x2707 (= cell_8_8 2)))
 (let (($x187 (= cell_8_8 1)))
 (or $x187 $x2707 $x2237 $x3215 $x2271 $x653 $x3575 $x1602 $x2656)))))))))))
(assert
 (let (($x1366 (= cell_9_8 2)))
 (let (($x780 (= cell_9_8 1)))
 (or $x780 $x1366 (= cell_9_8 3) (= cell_9_8 4) (= cell_9_8 5) (= cell_9_8 6) (= cell_9_8 7) (= cell_9_8 8) (= cell_9_8 9)))))
(assert
 (let (($x2140 (= cell_1_9 9)))
 (let (($x1254 (= cell_1_9 8)))
 (let (($x2606 (= cell_1_9 7)))
 (let (($x1745 (= cell_1_9 6)))
 (let (($x1658 (= cell_1_9 5)))
 (let (($x1330 (= cell_1_9 4)))
 (let (($x1552 (= cell_1_9 3)))
 (let (($x2151 (= cell_1_9 2)))
 (let (($x279 (= cell_1_9 1)))
 (or $x279 $x2151 $x1552 $x1330 $x1658 $x1745 $x2606 $x1254 $x2140)))))))))))
(assert
 (let (($x2861 (= cell_2_9 9)))
 (let (($x286 (= cell_2_9 8)))
 (let (($x2341 (= cell_2_9 7)))
 (let (($x2524 (= cell_2_9 6)))
 (let (($x2658 (= cell_2_9 5)))
 (let (($x851 (= cell_2_9 4)))
 (let (($x702 (= cell_2_9 3)))
 (let (($x171 (= cell_2_9 2)))
 (let (($x2043 (= cell_2_9 1)))
 (or $x2043 $x171 $x702 $x851 $x2658 $x2524 $x2341 $x286 $x2861)))))))))))
(assert
 (let (($x2556 (= cell_3_9 1)))
 (or $x2556 (= cell_3_9 2) (= cell_3_9 3) (= cell_3_9 4) (= cell_3_9 5) (= cell_3_9 6) (= cell_3_9 7) (= cell_3_9 8) (= cell_3_9 9))))
(assert
 (let (($x1617 (= cell_4_9 9)))
 (let (($x1800 (= cell_4_9 8)))
 (let (($x3012 (= cell_4_9 7)))
 (let (($x296 (= cell_4_9 6)))
 (let (($x1436 (= cell_4_9 5)))
 (let (($x913 (= cell_4_9 4)))
 (let (($x1549 (= cell_4_9 3)))
 (let (($x1407 (= cell_4_9 2)))
 (let (($x3651 (= cell_4_9 1)))
 (or $x3651 $x1407 $x1549 $x913 $x1436 $x296 $x3012 $x1800 $x1617)))))))))))
(assert
 (let (($x2815 (= cell_5_9 9)))
 (let (($x804 (= cell_5_9 8)))
 (let (($x1704 (= cell_5_9 7)))
 (let (($x415 (= cell_5_9 6)))
 (let (($x3257 (= cell_5_9 5)))
 (let (($x1166 (= cell_5_9 4)))
 (let (($x363 (= cell_5_9 3)))
 (let (($x1795 (= cell_5_9 2)))
 (let (($x3384 (= cell_5_9 1)))
 (or $x3384 $x1795 $x363 $x1166 $x3257 $x415 $x1704 $x804 $x2815)))))))))))
(assert
 (let (($x1326 (= cell_6_9 2)))
 (or (= cell_6_9 1) $x1326 (= cell_6_9 3) (= cell_6_9 4) (= cell_6_9 5) (= cell_6_9 6) (= cell_6_9 7) (= cell_6_9 8) (= cell_6_9 9))))
(assert
 (let (($x236 (= cell_7_9 9)))
 (let (($x1114 (= cell_7_9 8)))
 (let (($x524 (= cell_7_9 7)))
 (let (($x765 (= cell_7_9 6)))
 (let (($x1119 (= cell_7_9 5)))
 (let (($x781 (= cell_7_9 4)))
 (let (($x839 (= cell_7_9 3)))
 (let (($x875 (= cell_7_9 2)))
 (let (($x613 (= cell_7_9 1)))
 (or $x613 $x875 $x839 $x781 $x1119 $x765 $x524 $x1114 $x236)))))))))))
(assert
 (let (($x678 (= cell_8_9 9)))
 (let (($x2518 (= cell_8_9 8)))
 (let (($x2096 (= cell_8_9 7)))
 (let (($x1310 (= cell_8_9 6)))
 (let (($x310 (= cell_8_9 5)))
 (let (($x1523 (= cell_8_9 4)))
 (let (($x3008 (= cell_8_9 3)))
 (let (($x731 (= cell_8_9 2)))
 (let (($x268 (= cell_8_9 1)))
 (or $x268 $x731 $x3008 $x1523 $x310 $x1310 $x2096 $x2518 $x678)))))))))))
(assert
 (let (($x2414 (= cell_9_9 2)))
 (let (($x1709 (= cell_9_9 1)))
 (or $x1709 $x2414 (= cell_9_9 3) (= cell_9_9 4) (= cell_9_9 5) (= cell_9_9 6) (= cell_9_9 7) (= cell_9_9 8) (= cell_9_9 9)))))
(assert
 (and (distinct cell_1_1 cell_1_2 cell_1_3 cell_1_4 cell_1_5 cell_1_6 cell_1_7 cell_1_8 cell_1_9) true))
(assert
 (and (distinct cell_2_1 cell_2_2 cell_2_3 cell_2_4 cell_2_5 cell_2_6 cell_2_7 cell_2_8 cell_2_9) true))
(assert
 (and (distinct cell_3_1 cell_3_2 cell_3_3 cell_3_4 cell_3_5 cell_3_6 cell_3_7 cell_3_8 cell_3_9) true))
(assert
 (and (distinct cell_4_1 cell_4_2 cell_4_3 cell_4_4 cell_4_5 cell_4_6 cell_4_7 cell_4_8 cell_4_9) true))
(assert
 (and (distinct cell_5_1 cell_5_2 cell_5_3 cell_5_4 cell_5_5 cell_5_6 cell_5_7 cell_5_8 cell_5_9) true))
(assert
 (and (distinct cell_6_1 cell_6_2 cell_6_3 cell_6_4 cell_6_5 cell_6_6 cell_6_7 cell_6_8 cell_6_9) true))
(assert
 (and (distinct cell_7_1 cell_7_2 cell_7_3 cell_7_4 cell_7_5 cell_7_6 cell_7_7 cell_7_8 cell_7_9) true))
(assert
 (and (distinct cell_8_1 cell_8_2 cell_8_3 cell_8_4 cell_8_5 cell_8_6 cell_8_7 cell_8_8 cell_8_9) true))
(assert
 (and (distinct cell_9_1 cell_9_2 cell_9_3 cell_9_4 cell_9_5 cell_9_6 cell_9_7 cell_9_8 cell_9_9) true))
(assert
 (and (distinct cell_1_1 cell_2_1 cell_3_1 cell_4_1 cell_5_1 cell_6_1 cell_7_1 cell_8_1 cell_9_1) true))
(assert
 (and (distinct cell_1_2 cell_2_2 cell_3_2 cell_4_2 cell_5_2 cell_6_2 cell_7_2 cell_8_2 cell_9_2) true))
(assert
 (and (distinct cell_1_3 cell_2_3 cell_3_3 cell_4_3 cell_5_3 cell_6_3 cell_7_3 cell_8_3 cell_9_3) true))
(assert
 (and (distinct cell_1_4 cell_2_4 cell_3_4 cell_4_4 cell_5_4 cell_6_4 cell_7_4 cell_8_4 cell_9_4) true))
(assert
 (and (distinct cell_1_5 cell_2_5 cell_3_5 cell_4_5 cell_5_5 cell_6_5 cell_7_5 cell_8_5 cell_9_5) true))
(assert
 (and (distinct cell_1_6 cell_2_6 cell_3_6 cell_4_6 cell_5_6 cell_6_6 cell_7_6 cell_8_6 cell_9_6) true))
(assert
 (and (distinct cell_1_7 cell_2_7 cell_3_7 cell_4_7 cell_5_7 cell_6_7 cell_7_7 cell_8_7 cell_9_7) true))
(assert
 (and (distinct cell_1_8 cell_2_8 cell_3_8 cell_4_8 cell_5_8 cell_6_8 cell_7_8 cell_8_8 cell_9_8) true))
(assert
 (and (distinct cell_1_9 cell_2_9 cell_3_9 cell_4_9 cell_5_9 cell_6_9 cell_7_9 cell_8_9 cell_9_9) true))
(assert
 (and (distinct cell_1_1 cell_1_2 cell_1_3 cell_2_1 cell_2_2 cell_2_3 cell_3_1 cell_3_2 cell_3_3) true))
(assert
 (and (distinct cell_1_4 cell_1_5 cell_1_6 cell_2_4 cell_2_5 cell_2_6 cell_3_4 cell_3_5 cell_3_6) true))
(assert
 (and (distinct cell_1_7 cell_1_8 cell_1_9 cell_2_7 cell_2_8 cell_2_9 cell_3_7 cell_3_8 cell_3_9) true))
(assert
 (and (distinct cell_4_1 cell_4_2 cell_4_3 cell_5_1 cell_5_2 cell_5_3 cell_6_1 cell_6_2 cell_6_3) true))
(assert
 (and (distinct cell_4_4 cell_4_5 cell_4_6 cell_5_4 cell_5_5 cell_5_6 cell_6_4 cell_6_5 cell_6_6) true))
(assert
 (and (distinct cell_4_7 cell_4_8 cell_4_9 cell_5_7 cell_5_8 cell_5_9 cell_6_7 cell_6_8 cell_6_9) true))
(assert
 (and (distinct cell_7_1 cell_7_2 cell_7_3 cell_8_1 cell_8_2 cell_8_3 cell_9_1 cell_9_2 cell_9_3) true))
(assert
 (and (distinct cell_7_4 cell_7_5 cell_7_6 cell_8_4 cell_8_5 cell_8_6 cell_9_4 cell_9_5 cell_9_6) true))
(assert
 (and (distinct cell_7_7 cell_7_8 cell_7_9 cell_8_7 cell_8_8 cell_8_9 cell_9_7 cell_9_8 cell_9_9) true))
(assert
 (let (($x1227 (and (distinct cell_5_9 cell_6_8 cell_7_7 cell_8_6) true)))
 (let (($x333 (and (distinct cell_2_9 cell_3_8 cell_4_7 cell_5_6 cell_6_5 cell_7_4 cell_8_3 cell_9_2) true)))
 (let (($x970 (and (distinct cell_1_8 cell_2_7 cell_3_6 cell_4_5 cell_5_4 cell_6_3 cell_7_2 cell_8_1) true)))
 (let (($x2456 (and (distinct cell_1_5 cell_2_4 cell_3_3 cell_4_2) true)))
 (let (($x1280 (and (distinct cell_5_1 cell_6_2 cell_7_3 cell_8_4) true)))
 (let (($x1290 (and (distinct cell_2_1 cell_3_2 cell_4_3 cell_5_4 cell_6_5 cell_7_6 cell_8_7 cell_9_8) true)))
 (let (($x2546 (and (distinct cell_1_2 cell_2_3 cell_3_4 cell_4_5 cell_5_6 cell_6_7 cell_7_8 cell_8_9) true)))
 (let (($x2827 (and (distinct cell_1_5 cell_2_6 cell_3_7 cell_4_8) true)))
 (and $x2827 $x2546 $x1290 $x1280 $x2456 $x970 $x333 $x1227))))))))))
(assert
 (= cell_7_2 2))
(check-sat)
